[runlim] version:		1.10
[runlim] time limit:		311040000 seconds
[runlim] real time limit:	900 seconds
[runlim] space limit:		8000 MB
[runlim] argv[0]:		python3
[runlim] argv[1]:		-u
[runlim] argv[2]:		mip.py
[runlim] argv[3]:		graph09
[runlim] start:			Fri Jan 16 23:38:19 2026
[runlim] main pid:		20932
Building MIP model...
[runlim] sample:		9.9 time, 10.9 real, 38.4 MB
[runlim] sample:		19.9 time, 20.9 real, 40.2 MB
[runlim] sample:		30.0 time, 30.9 real, 41.9 MB
[runlim] sample:		40.0 time, 40.9 real, 43.8 MB
[runlim] sample:		50.0 time, 50.9 real, 44.7 MB
[runlim] sample:		60.0 time, 60.9 real, 46.2 MB
[runlim] sample:		70.0 time, 70.9 real, 47.4 MB
[runlim] sample:		80.0 time, 80.9 real, 48.3 MB
[runlim] sample:		90.0 time, 90.9 real, 48.8 MB
[runlim] sample:		100.0 time, 100.9 real, 48.9 MB
[runlim] sample:		110.0 time, 110.9 real, 50.5 MB
[runlim] sample:		120.0 time, 120.9 real, 50.7 MB
[runlim] sample:		130.0 time, 130.9 real, 50.8 MB
[runlim] sample:		139.9 time, 140.9 real, 53.0 MB
[runlim] sample:		149.9 time, 150.9 real, 53.3 MB
[runlim] sample:		160.0 time, 160.9 real, 53.6 MB
[runlim] sample:		170.0 time, 170.9 real, 53.8 MB
[runlim] sample:		179.9 time, 180.9 real, 55.2 MB
[runlim] sample:		189.9 time, 190.9 real, 55.9 MB
[runlim] sample:		200.0 time, 200.9 real, 56.2 MB
[runlim] sample:		209.9 time, 210.9 real, 56.5 MB
[runlim] sample:		219.9 time, 220.9 real, 56.6 MB
[runlim] sample:		230.0 time, 230.9 real, 56.7 MB
[runlim] sample:		239.9 time, 240.9 real, 59.9 MB
[runlim] sample:		249.9 time, 250.9 real, 60.4 MB
[runlim] sample:		260.0 time, 260.9 real, 60.7 MB
[runlim] sample:		269.9 time, 270.9 real, 60.9 MB
[runlim] sample:		279.9 time, 280.9 real, 61.1 MB
[runlim] sample:		290.0 time, 290.9 real, 61.2 MB
[runlim] sample:		300.0 time, 300.9 real, 61.4 MB
Build time: 308.56s
Solving MIP (minimizing number of labels)...
Version identifier: 22.1.1.0 | 2022-11-28 | 9160aff4d
CPXPARAM_Read_DataCheck                          1
Legacy callback                                  i
Tried aggregator 2 times.
[runlim] sample:		310.2 time, 310.9 real, 318.4 MB
MIP Presolve eliminated 575783 rows and 0 columns.
MIP Presolve modified 58586 coefficients.
Aggregator did 18046 substitutions.
Reduced MIP has 59048 rows, 18094 columns, and 559563 nonzeros.
Reduced MIP has 18094 binaries, 0 generals, 0 SOSs, and 0 indicators.
Presolve time = 3.27 sec. (2718.85 ticks)
Found incumbent of value 48.000000 after 3.88 sec. (3575.28 ticks)
Probing time = 0.04 sec. (6.77 ticks)
Tried aggregator 1 time.
Detecting symmetries...
MIP Presolve eliminated 2 rows and 0 columns.
Reduced MIP has 59046 rows, 18092 columns, and 559557 nonzeros.
Reduced MIP has 18092 binaries, 0 generals, 0 SOSs, and 0 indicators.
Presolve time = 0.82 sec. (666.80 ticks)
Probing time = 0.03 sec. (6.74 ticks)
Clique table members: 59047.
MIP emphasis: balance optimality and feasibility.
MIP search method: dynamic search.
Parallel mode: deterministic, using up to 12 threads.
[runlim] sample:		349.5 time, 320.9 real, 738.9 MB
[runlim] sample:		392.9 time, 330.9 real, 683.8 MB
[runlim] sample:		483.4 time, 340.9 real, 1835.3 MB
[runlim] sample:		582.2 time, 350.9 real, 1835.3 MB
[runlim] sample:		682.1 time, 360.9 real, 1835.3 MB
[runlim] sample:		781.0 time, 370.9 real, 1835.3 MB
[runlim] sample:		880.1 time, 380.9 real, 1835.3 MB
[runlim] sample:		973.0 time, 390.9 real, 684.9 MB
Root relaxation solution time = 76.83 sec. (14649.13 ticks)

        Nodes                                         Cuts/
   Node  Left     Objective  IInf  Best Integer    Best Bound    ItCnt     Gap

*     0+    0                           48.0000        0.0000           100.00%
*     0+    0                           30.0000        0.0000           100.00%
*     0+    0                           28.0000        0.0000           100.00%
*     0+    0                           26.0000        0.0000           100.00%
      0     0       18.0000   885       26.0000       18.0000    36098   30.77%

========== NEW INCUMBENT SOLUTION ==========
{1: 526, 2: 764, 3: 268, 4: 30, 5: 156, 6: 394, 7: 30, 8: 268, 9: 142, 10: 380, 11: 526, 12: 764, 13: 694, 14: 456, 15: 498, 16: 736, 17: 86, 18: 324, 19: 498, 20: 736, 21: 498, 22: 736, 23: 652, 24: 414, 25: 694, 26: 456, 27: 142, 28: 380, 29: 414, 30: 652, 31: 456, 32: 694, 33: 456, 34: 694, 35: 652, 36: 414, 37: 86, 38: 324, 39: 526, 40: 764, 41: 86, 42: 324, 43: 456, 44: 694, 45: 526, 46: 764, 47: 380, 48: 142, 49: 128, 50: 366, 51: 456, 52: 694, 53: 456, 54: 694, 55: 736, 56: 498, 57: 764, 58: 526, 59: 526, 60: 764, 61: 652, 62: 414, 63: 366, 64: 128, 65: 694, 66: 456, 67: 736, 68: 498, 69: 456, 70: 694, 71: 456, 72: 694, 73: 380, 74: 142, 75: 142, 76: 380, 77: 142, 78: 380, 79: 142, 80: 380, 81: 694, 82: 456, 83: 394, 84: 156, 85: 526, 86: 764, 87: 30, 88: 268, 89: 526, 90: 764, 91: 694, 92: 456, 93: 666, 94: 428, 95: 764, 96: 526, 97: 30, 98: 268, 99: 142, 100: 380, 101: 456, 102: 694, 103: 652, 104: 414, 105: 694, 106: 456, 107: 694, 108: 456, 109: 30, 110: 268, 111: 456, 112: 694, 113: 142, 114: 380, 115: 694, 116: 456, 117: 652, 118: 414, 119: 156, 120: 394, 121: 764, 122: 526, 123: 694, 124: 456, 125: 380, 126: 142, 127: 456, 128: 694, 129: 526, 130: 764, 131: 764, 132: 526, 133: 652, 134: 414, 135: 694, 136: 456, 137: 526, 138: 764, 139: 324, 140: 86, 141: 694, 142: 456, 143: 526, 144: 764, 145: 526, 146: 764, 147: 380, 148: 142, 149: 694, 150: 456, 151: 456, 152: 694, 153: 380, 154: 142, 155: 456, 156: 694, 157: 540, 158: 778, 159: 414, 160: 652, 161: 380, 162: 142, 163: 268, 164: 30, 165: 268, 166: 30, 167: 652, 168: 414, 169: 30, 170: 268, 171: 142, 172: 380, 173: 652, 174: 414, 175: 380, 176: 142, 177: 86, 178: 324, 179: 526, 180: 764, 181: 456, 182: 694, 183: 764, 184: 526, 185: 764, 186: 526, 187: 526, 188: 764, 189: 128, 190: 366, 191: 778, 192: 540, 193: 142, 194: 380, 195: 456, 196: 694, 197: 142, 198: 380, 199: 366, 200: 128, 201: 694, 202: 456, 203: 540, 204: 778, 205: 764, 206: 526, 207: 156, 208: 394, 209: 526, 210: 764, 211: 764, 212: 526, 213: 156, 214: 394, 215: 156, 216: 394, 217: 268, 218: 30, 219: 764, 220: 526, 221: 736, 222: 498, 223: 652, 224: 414, 225: 142, 226: 380, 227: 142, 228: 380, 229: 764, 230: 526, 231: 736, 232: 498, 233: 652, 234: 414, 235: 764, 236: 526, 237: 652, 238: 414, 239: 764, 240: 526, 241: 694, 242: 456, 243: 652, 244: 414, 245: 156, 246: 394, 247: 764, 248: 526, 249: 268, 250: 30, 251: 778, 252: 540, 253: 498, 254: 736, 255: 456, 256: 694, 257: 414, 258: 652, 259: 142, 260: 380, 261: 414, 262: 652, 263: 456, 264: 694, 265: 764, 266: 526, 267: 540, 268: 778, 269: 526, 270: 764, 271: 764, 272: 526, 273: 296, 274: 58, 275: 764, 276: 526, 277: 764, 278: 526, 279: 30, 280: 268, 281: 142, 282: 380, 283: 694, 284: 456, 285: 652, 286: 414, 287: 652, 288: 414, 289: 58, 290: 296, 291: 142, 292: 380, 293: 764, 294: 526, 295: 142, 296: 380, 297: 366, 298: 128, 299: 456, 300: 694, 301: 156, 302: 394, 303: 764, 304: 526, 305: 86, 306: 324, 307: 456, 308: 694, 309: 498, 310: 736, 311: 456, 312: 694, 313: 526, 314: 764, 315: 498, 316: 736, 317: 394, 318: 156, 319: 694, 320: 456, 321: 414, 322: 652, 323: 380, 324: 142, 325: 310, 326: 72, 327: 736, 328: 498, 329: 380, 330: 142, 331: 86, 332: 324, 333: 58, 334: 296, 335: 526, 336: 764, 337: 764, 338: 526, 339: 456, 340: 694, 341: 30, 342: 268, 343: 526, 344: 764, 345: 414, 346: 652, 347: 736, 348: 498, 349: 380, 350: 142, 351: 58, 352: 296, 353: 652, 354: 414, 355: 380, 356: 142, 357: 764, 358: 526, 359: 414, 360: 652, 361: 30, 362: 268, 363: 666, 364: 428, 365: 526, 366: 764, 367: 30, 368: 268, 369: 380, 370: 142, 371: 736, 372: 498, 373: 540, 374: 778, 375: 736, 376: 498, 377: 142, 378: 380, 379: 498, 380: 736, 381: 456, 382: 694, 383: 652, 384: 414, 385: 498, 386: 736, 387: 30, 388: 268, 389: 764, 390: 526, 391: 86, 392: 324, 393: 156, 394: 394, 395: 30, 396: 268, 397: 156, 398: 394, 399: 526, 400: 764, 401: 456, 402: 694, 403: 694, 404: 456, 405: 268, 406: 30, 407: 456, 408: 694, 409: 324, 410: 86, 411: 380, 412: 142, 413: 694, 414: 456, 415: 778, 416: 540, 417: 526, 418: 764, 419: 764, 420: 526, 421: 380, 422: 142, 423: 526, 424: 764, 425: 526, 426: 764, 427: 380, 428: 142, 429: 142, 430: 380, 431: 526, 432: 764, 433: 764, 434: 526, 435: 694, 436: 456, 437: 142, 438: 380, 439: 764, 440: 526, 441: 380, 442: 142, 443: 764, 444: 526, 445: 764, 446: 526, 447: 268, 448: 30, 449: 694, 450: 456, 451: 414, 452: 652, 453: 764, 454: 526, 455: 268, 456: 30, 457: 456, 458: 694, 459: 694, 460: 456, 461: 30, 462: 268, 463: 526, 464: 764, 465: 142, 466: 380, 467: 526, 468: 764, 469: 414, 470: 652, 471: 142, 472: 380, 473: 694, 474: 456, 475: 366, 476: 128, 477: 142, 478: 380, 479: 526, 480: 764, 481: 526, 482: 764, 483: 764, 484: 526, 485: 498, 486: 736, 487: 764, 488: 526, 489: 380, 490: 142, 491: 764, 492: 526, 493: 652, 494: 414, 495: 30, 496: 268, 497: 142, 498: 380, 499: 58, 500: 296, 501: 498, 502: 736, 503: 414, 504: 652, 505: 428, 506: 666, 507: 652, 508: 414, 509: 526, 510: 764, 511: 30, 512: 268, 513: 736, 514: 498, 515: 30, 516: 268, 517: 456, 518: 694, 519: 142, 520: 380, 521: 456, 522: 694, 523: 394, 524: 156, 525: 456, 526: 694, 527: 128, 528: 366, 529: 652, 530: 414, 531: 380, 532: 142, 533: 394, 534: 156, 535: 380, 536: 142, 537: 128, 538: 366, 539: 86, 540: 324, 541: 456, 542: 694, 543: 764, 544: 526, 545: 764, 546: 526, 547: 652, 548: 414, 549: 498, 550: 736, 551: 268, 552: 30, 553: 526, 554: 764, 555: 456, 556: 694, 557: 380, 558: 142, 559: 694, 560: 456, 561: 142, 562: 380, 563: 30, 564: 268, 565: 380, 566: 142, 567: 58, 568: 296, 569: 526, 570: 764, 571: 128, 572: 366, 573: 456, 574: 694, 575: 324, 576: 86, 577: 694, 578: 456, 579: 296, 580: 58, 581: 268, 582: 30, 583: 414, 584: 652, 585: 456, 586: 694, 587: 764, 588: 526, 589: 268, 590: 30, 591: 380, 592: 142, 593: 268, 594: 30, 595: 652, 596: 414, 597: 414, 598: 652, 599: 30, 600: 268, 601: 694, 602: 456, 603: 86, 604: 324, 605: 414, 606: 652, 607: 30, 608: 268, 609: 366, 610: 128, 611: 456, 612: 694, 613: 86, 614: 324, 615: 380, 616: 142, 617: 128, 618: 366, 619: 414, 620: 652, 621: 380, 622: 142, 623: 456, 624: 694, 625: 526, 626: 764, 627: 498, 628: 736, 629: 456, 630: 694, 631: 366, 632: 128, 633: 526, 634: 764, 635: 456, 636: 694, 637: 380, 638: 142, 639: 498, 640: 736, 641: 666, 642: 428, 643: 526, 644: 764, 645: 764, 646: 526, 647: 652, 648: 414, 649: 694, 650: 456, 651: 526, 652: 764, 653: 456, 654: 694, 655: 268, 656: 30, 657: 652, 658: 414, 659: 394, 660: 156, 661: 764, 662: 526, 663: 652, 664: 414, 665: 736, 666: 498, 667: 296, 668: 58, 669: 380, 670: 142, 671: 142, 672: 380, 673: 736, 674: 498, 675: 764, 676: 526, 677: 142, 678: 380, 679: 764, 680: 526, 681: 142, 682: 380, 683: 540, 684: 778, 685: 156, 686: 394, 687: 128, 688: 366, 689: 380, 690: 142, 691: 526, 692: 764, 693: 694, 694: 456, 695: 268, 696: 30, 697: 142, 698: 380, 699: 456, 700: 694, 701: 142, 702: 380, 703: 324, 704: 86, 705: 456, 706: 694, 707: 58, 708: 296, 709: 652, 710: 414, 711: 764, 712: 526, 713: 456, 714: 694, 715: 366, 716: 128, 717: 30, 718: 268, 719: 540, 720: 778, 721: 380, 722: 142, 723: 694, 724: 456, 725: 128, 726: 366, 727: 30, 728: 268, 729: 652, 730: 414, 731: 324, 732: 86, 733: 652, 734: 414, 735: 694, 736: 456, 737: 764, 738: 526, 739: 498, 740: 736, 741: 366, 742: 128, 743: 456, 744: 694, 745: 58, 746: 296, 747: 498, 748: 736, 749: 764, 750: 526, 751: 30, 752: 268, 753: 694, 754: 456, 755: 456, 756: 694, 757: 128, 758: 366, 759: 764, 760: 526, 761: 456, 762: 694, 763: 694, 764: 456, 765: 498, 766: 736, 767: 324, 768: 86, 769: 498, 770: 736, 771: 526, 772: 764, 773: 128, 774: 366, 775: 526, 776: 764, 777: 666, 778: 428, 779: 526, 780: 764, 781: 296, 782: 58, 783: 764, 784: 526, 785: 128, 786: 366, 787: 526, 788: 764, 789: 540, 790: 778, 791: 58, 792: 296, 793: 366, 794: 128, 795: 268, 796: 30, 797: 526, 798: 764, 799: 128, 800: 366, 801: 296, 802: 58, 803: 652, 804: 414, 805: 30, 806: 268, 807: 652, 808: 414, 809: 778, 810: 540, 811: 30, 812: 268, 813: 58, 814: 296, 815: 30, 816: 268, 817: 86, 818: 324, 819: 526, 820: 764, 821: 526, 822: 764, 823: 526, 824: 764, 825: 86, 826: 324, 827: 764, 828: 526, 829: 764, 830: 526, 831: 142, 832: 380, 833: 366, 834: 128, 835: 142, 836: 380, 837: 694, 838: 456, 839: 366, 840: 128, 841: 456, 842: 694, 843: 694, 844: 456, 845: 456, 846: 694, 847: 526, 848: 764, 849: 86, 850: 324, 851: 526, 852: 764, 853: 142, 854: 380, 855: 764, 856: 526, 857: 526, 858: 764, 859: 380, 860: 142, 861: 324, 862: 86, 863: 652, 864: 414, 865: 694, 866: 456, 867: 778, 868: 540, 869: 380, 870: 142, 871: 456, 872: 694, 873: 764, 874: 526, 875: 694, 876: 456, 877: 736, 878: 498, 879: 778, 880: 540, 881: 86, 882: 324, 883: 526, 884: 764, 885: 142, 886: 380, 887: 128, 888: 366, 889: 694, 890: 456, 891: 86, 892: 324, 893: 764, 894: 526, 895: 380, 896: 142, 897: 526, 898: 764, 899: 30, 900: 268, 901: 156, 902: 394, 903: 526, 904: 764, 905: 366, 906: 128, 907: 142, 908: 380, 909: 694, 910: 456, 911: 86, 912: 324, 913: 268, 914: 30, 915: 414, 916: 652}
Number of labels used: 26
Total time: 390.46 sec
Memory: 676.92 MB
=============================================

========== NEW INCUMBENT SOLUTION ==========
{1: 526, 2: 764, 3: 268, 4: 30, 5: 156, 6: 394, 7: 30, 8: 268, 9: 142, 10: 380, 11: 526, 12: 764, 13: 694, 14: 456, 15: 498, 16: 736, 17: 86, 18: 324, 19: 498, 20: 736, 21: 498, 22: 736, 23: 652, 24: 414, 25: 694, 26: 456, 27: 142, 28: 380, 29: 414, 30: 652, 31: 456, 32: 694, 33: 456, 34: 694, 35: 652, 36: 414, 37: 86, 38: 324, 39: 526, 40: 764, 41: 86, 42: 324, 43: 456, 44: 694, 45: 526, 46: 764, 47: 380, 48: 142, 49: 128, 50: 366, 51: 456, 52: 694, 53: 456, 54: 694, 55: 736, 56: 498, 57: 764, 58: 526, 59: 526, 60: 764, 61: 652, 62: 414, 63: 366, 64: 128, 65: 694, 66: 456, 67: 736, 68: 498, 69: 456, 70: 694, 71: 456, 72: 694, 73: 380, 74: 142, 75: 142, 76: 380, 77: 142, 78: 380, 79: 142, 80: 380, 81: 694, 82: 456, 83: 394, 84: 156, 85: 526, 86: 764, 87: 30, 88: 268, 89: 526, 90: 764, 91: 694, 92: 456, 93: 666, 94: 428, 95: 764, 96: 526, 97: 30, 98: 268, 99: 142, 100: 380, 101: 456, 102: 694, 103: 652, 104: 414, 105: 694, 106: 456, 107: 694, 108: 456, 109: 30, 110: 268, 111: 456, 112: 694, 113: 142, 114: 380, 115: 694, 116: 456, 117: 652, 118: 414, 119: 156, 120: 394, 121: 764, 122: 526, 123: 694, 124: 456, 125: 380, 126: 142, 127: 456, 128: 694, 129: 526, 130: 764, 131: 764, 132: 526, 133: 652, 134: 414, 135: 694, 136: 456, 137: 526, 138: 764, 139: 324, 140: 86, 141: 694, 142: 456, 143: 526, 144: 764, 145: 526, 146: 764, 147: 380, 148: 142, 149: 694, 150: 456, 151: 456, 152: 694, 153: 380, 154: 142, 155: 456, 156: 694, 157: 540, 158: 778, 159: 414, 160: 652, 161: 380, 162: 142, 163: 268, 164: 30, 165: 268, 166: 30, 167: 652, 168: 414, 169: 30, 170: 268, 171: 142, 172: 380, 173: 652, 174: 414, 175: 380, 176: 142, 177: 86, 178: 324, 179: 526, 180: 764, 181: 456, 182: 694, 183: 764, 184: 526, 185: 764, 186: 526, 187: 526, 188: 764, 189: 128, 190: 366, 191: 778, 192: 540, 193: 142, 194: 380, 195: 456, 196: 694, 197: 142, 198: 380, 199: 366, 200: 128, 201: 694, 202: 456, 203: 540, 204: 778, 205: 764, 206: 526, 207: 156, 208: 394, 209: 526, 210: 764, 211: 764, 212: 526, 213: 156, 214: 394, 215: 156, 216: 394, 217: 268, 218: 30, 219: 764, 220: 526, 221: 736, 222: 498, 223: 652, 224: 414, 225: 142, 226: 380, 227: 142, 228: 380, 229: 764, 230: 526, 231: 736, 232: 498, 233: 652, 234: 414, 235: 764, 236: 526, 237: 652, 238: 414, 239: 764, 240: 526, 241: 694, 242: 456, 243: 652, 244: 414, 245: 156, 246: 394, 247: 764, 248: 526, 249: 268, 250: 30, 251: 778, 252: 540, 253: 498, 254: 736, 255: 456, 256: 694, 257: 414, 258: 652, 259: 142, 260: 380, 261: 414, 262: 652, 263: 456, 264: 694, 265: 764, 266: 526, 267: 540, 268: 778, 269: 526, 270: 764, 271: 764, 272: 526, 273: 296, 274: 58, 275: 764, 276: 526, 277: 764, 278: 526, 279: 30, 280: 268, 281: 142, 282: 380, 283: 694, 284: 456, 285: 652, 286: 414, 287: 652, 288: 414, 289: 58, 290: 296, 291: 142, 292: 380, 293: 764, 294: 526, 295: 142, 296: 380, 297: 366, 298: 128, 299: 456, 300: 694, 301: 156, 302: 394, 303: 764, 304: 526, 305: 86, 306: 324, 307: 456, 308: 694, 309: 498, 310: 736, 311: 456, 312: 694, 313: 526, 314: 764, 315: 498, 316: 736, 317: 394, 318: 156, 319: 694, 320: 456, 321: 414, 322: 652, 323: 380, 324: 142, 325: 310, 326: 72, 327: 736, 328: 498, 329: 380, 330: 142, 331: 86, 332: 324, 333: 58, 334: 296, 335: 526, 336: 764, 337: 764, 338: 526, 339: 456, 340: 694, 341: 30, 342: 268, 343: 526, 344: 764, 345: 414, 346: 652, 347: 736, 348: 498, 349: 380, 350: 142, 351: 58, 352: 296, 353: 652, 354: 414, 355: 380, 356: 142, 357: 764, 358: 526, 359: 414, 360: 652, 361: 30, 362: 268, 363: 666, 364: 428, 365: 526, 366: 764, 367: 30, 368: 268, 369: 380, 370: 142, 371: 736, 372: 498, 373: 540, 374: 778, 375: 736, 376: 498, 377: 142, 378: 380, 379: 498, 380: 736, 381: 456, 382: 694, 383: 652, 384: 414, 385: 498, 386: 736, 387: 30, 388: 268, 389: 764, 390: 526, 391: 86, 392: 324, 393: 156, 394: 394, 395: 30, 396: 268, 397: 156, 398: 394, 399: 526, 400: 764, 401: 456, 402: 694, 403: 694, 404: 456, 405: 268, 406: 30, 407: 456, 408: 694, 409: 324, 410: 86, 411: 380, 412: 142, 413: 694, 414: 456, 415: 778, 416: 540, 417: 526, 418: 764, 419: 764, 420: 526, 421: 380, 422: 142, 423: 526, 424: 764, 425: 526, 426: 764, 427: 380, 428: 142, 429: 142, 430: 380, 431: 526, 432: 764, 433: 764, 434: 526, 435: 694, 436: 456, 437: 142, 438: 380, 439: 764, 440: 526, 441: 380, 442: 142, 443: 764, 444: 526, 445: 764, 446: 526, 447: 268, 448: 30, 449: 694, 450: 456, 451: 414, 452: 652, 453: 764, 454: 526, 455: 268, 456: 30, 457: 456, 458: 694, 459: 694, 460: 456, 461: 30, 462: 268, 463: 526, 464: 764, 465: 142, 466: 380, 467: 526, 468: 764, 469: 414, 470: 652, 471: 142, 472: 380, 473: 694, 474: 456, 475: 366, 476: 128, 477: 142, 478: 380, 479: 526, 480: 764, 481: 526, 482: 764, 483: 764, 484: 526, 485: 498, 486: 736, 487: 764, 488: 526, 489: 380, 490: 142, 491: 764, 492: 526, 493: 652, 494: 414, 495: 30, 496: 268, 497: 142, 498: 380, 499: 58, 500: 296, 501: 498, 502: 736, 503: 414, 504: 652, 505: 428, 506: 666, 507: 652, 508: 414, 509: 526, 510: 764, 511: 30, 512: 268, 513: 736, 514: 498, 515: 30, 516: 268, 517: 456, 518: 694, 519: 142, 520: 380, 521: 456, 522: 694, 523: 394, 524: 156, 525: 456, 526: 694, 527: 128, 528: 366, 529: 652, 530: 414, 531: 380, 532: 142, 533: 394, 534: 156, 535: 380, 536: 142, 537: 128, 538: 366, 539: 86, 540: 324, 541: 456, 542: 694, 543: 764, 544: 526, 545: 764, 546: 526, 547: 652, 548: 414, 549: 498, 550: 736, 551: 268, 552: 30, 553: 526, 554: 764, 555: 456, 556: 694, 557: 380, 558: 142, 559: 694, 560: 456, 561: 142, 562: 380, 563: 30, 564: 268, 565: 380, 566: 142, 567: 58, 568: 296, 569: 526, 570: 764, 571: 128, 572: 366, 573: 456, 574: 694, 575: 324, 576: 86, 577: 694, 578: 456, 579: 296, 580: 58, 581: 268, 582: 30, 583: 414, 584: 652, 585: 456, 586: 694, 587: 764, 588: 526, 589: 268, 590: 30, 591: 380, 592: 142, 593: 268, 594: 30, 595: 652, 596: 414, 597: 414, 598: 652, 599: 30, 600: 268, 601: 694, 602: 456, 603: 86, 604: 324, 605: 414, 606: 652, 607: 30, 608: 268, 609: 366, 610: 128, 611: 456, 612: 694, 613: 86, 614: 324, 615: 380, 616: 142, 617: 128, 618: 366, 619: 414, 620: 652, 621: 380, 622: 142, 623: 456, 624: 694, 625: 526, 626: 764, 627: 498, 628: 736, 629: 456, 630: 694, 631: 366, 632: 128, 633: 526, 634: 764, 635: 456, 636: 694, 637: 380, 638: 142, 639: 498, 640: 736, 641: 666, 642: 428, 643: 526, 644: 764, 645: 764, 646: 526, 647: 652, 648: 414, 649: 694, 650: 456, 651: 526, 652: 764, 653: 456, 654: 694, 655: 268, 656: 30, 657: 652, 658: 414, 659: 394, 660: 156, 661: 764, 662: 526, 663: 652, 664: 414, 665: 736, 666: 498, 667: 296, 668: 58, 669: 380, 670: 142, 671: 142, 672: 380, 673: 736, 674: 498, 675: 764, 676: 526, 677: 142, 678: 380, 679: 764, 680: 526, 681: 142, 682: 380, 683: 540, 684: 778, 685: 156, 686: 394, 687: 128, 688: 366, 689: 380, 690: 142, 691: 526, 692: 764, 693: 694, 694: 456, 695: 268, 696: 30, 697: 142, 698: 380, 699: 456, 700: 694, 701: 142, 702: 380, 703: 324, 704: 86, 705: 456, 706: 694, 707: 58, 708: 296, 709: 652, 710: 414, 711: 764, 712: 526, 713: 456, 714: 694, 715: 366, 716: 128, 717: 30, 718: 268, 719: 540, 720: 778, 721: 380, 722: 142, 723: 694, 724: 456, 725: 128, 726: 366, 727: 30, 728: 268, 729: 652, 730: 414, 731: 324, 732: 86, 733: 652, 734: 414, 735: 694, 736: 456, 737: 764, 738: 526, 739: 498, 740: 736, 741: 366, 742: 128, 743: 456, 744: 694, 745: 58, 746: 296, 747: 498, 748: 736, 749: 764, 750: 526, 751: 30, 752: 268, 753: 694, 754: 456, 755: 456, 756: 694, 757: 128, 758: 366, 759: 764, 760: 526, 761: 456, 762: 694, 763: 694, 764: 456, 765: 498, 766: 736, 767: 324, 768: 86, 769: 498, 770: 736, 771: 526, 772: 764, 773: 128, 774: 366, 775: 526, 776: 764, 777: 666, 778: 428, 779: 526, 780: 764, 781: 296, 782: 58, 783: 764, 784: 526, 785: 128, 786: 366, 787: 526, 788: 764, 789: 540, 790: 778, 791: 58, 792: 296, 793: 366, 794: 128, 795: 268, 796: 30, 797: 526, 798: 764, 799: 128, 800: 366, 801: 296, 802: 58, 803: 652, 804: 414, 805: 30, 806: 268, 807: 652, 808: 414, 809: 778, 810: 540, 811: 30, 812: 268, 813: 58, 814: 296, 815: 30, 816: 268, 817: 86, 818: 324, 819: 526, 820: 764, 821: 526, 822: 764, 823: 526, 824: 764, 825: 86, 826: 324, 827: 764, 828: 526, 829: 764, 830: 526, 831: 142, 832: 380, 833: 366, 834: 128, 835: 142, 836: 380, 837: 694, 838: 456, 839: 366, 840: 128, 841: 456, 842: 694, 843: 694, 844: 456, 845: 456, 846: 694, 847: 526, 848: 764, 849: 86, 850: 324, 851: 526, 852: 764, 853: 142, 854: 380, 855: 764, 856: 526, 857: 526, 858: 764, 859: 380, 860: 142, 861: 324, 862: 86, 863: 652, 864: 414, 865: 694, 866: 456, 867: 778, 868: 540, 869: 380, 870: 142, 871: 456, 872: 694, 873: 764, 874: 526, 875: 694, 876: 456, 877: 736, 878: 498, 879: 778, 880: 540, 881: 86, 882: 324, 883: 526, 884: 764, 885: 142, 886: 380, 887: 128, 888: 366, 889: 694, 890: 456, 891: 86, 892: 324, 893: 764, 894: 526, 895: 380, 896: 142, 897: 526, 898: 764, 899: 30, 900: 268, 901: 156, 902: 394, 903: 526, 904: 764, 905: 366, 906: 128, 907: 142, 908: 380, 909: 694, 910: 456, 911: 86, 912: 324, 913: 268, 914: 30, 915: 414, 916: 652}
Number of labels used: 26
Total time: 390.48 sec
Memory: 677.55 MB
=============================================
[runlim] sample:		992.6 time, 400.9 real, 759.7 MB
[runlim] sample:		1012.7 time, 410.9 real, 761.4 MB
[runlim] sample:		1032.7 time, 420.9 real, 761.6 MB
[runlim] sample:		1052.5 time, 430.9 real, 761.6 MB
[runlim] sample:		1072.5 time, 440.9 real, 761.6 MB
[runlim] sample:		1092.5 time, 450.9 real, 762.6 MB
[runlim] sample:		1112.5 time, 460.9 real, 762.8 MB
[runlim] sample:		1132.5 time, 470.9 real, 763.1 MB
[runlim] sample:		1152.4 time, 480.9 real, 763.2 MB
[runlim] sample:		1172.3 time, 490.9 real, 763.3 MB
[runlim] sample:		1192.4 time, 500.9 real, 763.4 MB
[runlim] sample:		1212.5 time, 510.9 real, 773.3 MB
[runlim] sample:		1232.5 time, 520.9 real, 773.4 MB
[runlim] sample:		1252.5 time, 530.9 real, 773.4 MB
[runlim] sample:		1272.5 time, 540.9 real, 773.4 MB
[runlim] sample:		1292.4 time, 550.9 real, 773.6 MB
[runlim] sample:		1312.4 time, 560.9 real, 773.7 MB
[runlim] sample:		1332.5 time, 570.9 real, 773.7 MB
[runlim] sample:		1352.4 time, 580.9 real, 773.7 MB
[runlim] sample:		1372.5 time, 590.9 real, 773.7 MB
[runlim] sample:		1392.5 time, 600.9 real, 775.7 MB
[runlim] sample:		1412.4 time, 610.9 real, 775.8 MB
[runlim] sample:		1432.4 time, 620.9 real, 775.8 MB
[runlim] sample:		1452.5 time, 630.9 real, 775.8 MB
[runlim] sample:		1472.5 time, 640.9 real, 775.8 MB
[runlim] sample:		1492.4 time, 650.9 real, 775.8 MB
[runlim] sample:		1512.5 time, 660.9 real, 775.8 MB
[runlim] sample:		1532.6 time, 670.9 real, 775.8 MB
[runlim] sample:		1552.4 time, 680.9 real, 775.8 MB
[runlim] sample:		1572.5 time, 690.9 real, 775.8 MB
[runlim] sample:		1592.6 time, 700.9 real, 775.8 MB
[runlim] sample:		1612.5 time, 710.9 real, 775.9 MB
[runlim] sample:		1632.5 time, 720.9 real, 775.9 MB
[runlim] sample:		1652.5 time, 730.9 real, 775.9 MB
[runlim] sample:		1672.5 time, 740.9 real, 775.9 MB
[runlim] sample:		1692.4 time, 750.9 real, 775.9 MB
[runlim] sample:		1712.5 time, 760.9 real, 775.9 MB
[runlim] sample:		1732.5 time, 770.9 real, 775.9 MB
[runlim] sample:		1752.5 time, 780.9 real, 775.9 MB
[runlim] sample:		1772.5 time, 790.9 real, 775.9 MB
[runlim] sample:		1792.6 time, 800.9 real, 775.9 MB
[runlim] sample:		1812.5 time, 810.9 real, 776.1 MB
[runlim] sample:		1832.5 time, 820.9 real, 776.1 MB
[runlim] sample:		1852.6 time, 830.9 real, 776.1 MB
[runlim] sample:		1872.4 time, 840.9 real, 776.1 MB
[runlim] sample:		1892.4 time, 850.9 real, 776.1 MB
[runlim] sample:		1912.5 time, 860.9 real, 776.1 MB
[runlim] sample:		1932.4 time, 870.9 real, 776.1 MB
[runlim] sample:		1952.4 time, 880.9 real, 776.1 MB
[runlim] sample:		1972.5 time, 890.9 real, 776.1 MB
[runlim] end:			Fri Jan 16 23:53:19 2026
[runlim] status:		out of time
[runlim] result:		2
[runlim] children:		0
[runlim] real:			900.13 seconds
[runlim] time:			1990.93 seconds
[runlim] space:			1836.1 MB
[runlim] samples:		8992
